14833
1 1 0 0 0 1 0 0 0 1 1 0 1 1 1 1 0 0 0 0 
5 15 9 0 9 12 5 12 12 5 5 10 0 5 5 5 12 12 9 15 9 13 10 14 5 9 0 1 15 15 1 15 5 5 15 5 13 13 15 1 13 15 5 13 0 1 13 5 14 14 12 14 14 0 14 0 5 15 0 5 13 1 1 5 14 5 1 0 9 5 15 0 1 13 14 5 9 15 15 9 13 14 9 5 12 13 13 12 5 1 12 13 13 15 15 15 13 10 15 13 
